c ! encoding i-pc 343
p cnf 470 1502
-344 0
344 -345 0
344 -346 0
-32 -347 0
-33 -347 0
35 -347 0
40 -347 0
44 -347 0
-47 -347 0
-51 -347 0
53 -347 0
-58 -347 0
59 -347 0
-60 -347 0
74 -347 0
-75 -347 0
-93 -347 0
-95 -347 0
96 -347 0
100 -347 0
-101 -347 0
-103 -347 0
-107 -347 0
-108 -347 0
109 -347 0
-122 -347 0
-123 -347 0
124 -347 0
130 -347 0
-131 -347 0
-132 -347 0
-139 -347 0
-143 -347 0
145 -347 0
146 -347 0
-151 -347 0
156 -347 0
-157 -347 0
-167 -347 0
170 -347 0
173 -347 0
-177 -347 0
-184 -347 0
185 -347 0
-193 -347 0
-194 -347 0
199 -347 0
201 -347 0
-206 -347 0
-213 -347 0
214 -347 0
-217 -347 0
-219 -347 0
-221 -347 0
224 -347 0
227 -347 0
-231 -347 0
233 -347 0
-234 -347 0
-239 -347 0
-247 -347 0
-248 -347 0
252 -347 0
-258 -347 0
-260 -347 0
263 -347 0
-266 -347 0
267 -347 0
-279 -347 0
280 -347 0
286 -347 0
-287 -347 0
-291 -347 0
302 -347 0
-303 -347 0
310 -347 0
334 -347 0
347 -348 0
326 -348 0
344 -349 0
348 349 -350 0
-34 -351 0
-55 -351 0
-66 -351 0
69 -351 0
-175 -351 0
-195 -351 0
207 -351 0
-210 -351 0
350 -352 0
351 -352 0
352 -353 0
-327 -353 0
346 353 -354 0
-42 -355 0
-77 -355 0
-87 -355 0
-88 -355 0
-89 -355 0
-316 -355 0
318 -355 0
-332 -355 0
354 -356 0
355 -356 0
356 -357 0
90 -357 0
344 -358 0
357 358 -359 0
359 -360 0
345 360 -361 0
-180 -362 0
-226 -362 0
-272 -362 0
-274 -362 0
-278 -362 0
361 -363 0
362 -363 0
363 -364 0
271 -364 0
344 -365 0
344 -366 0
-32 -367 0
-33 -367 0
-34 -367 0
35 -367 0
40 -367 0
-42 -367 0
-44 -367 0
45 -367 0
-47 -367 0
51 -367 0
-53 -367 0
-55 -367 0
-58 -367 0
60 -367 0
-66 -367 0
69 -367 0
-74 -367 0
75 -367 0
-77 -367 0
-88 -367 0
90 -367 0
-93 -367 0
-95 -367 0
96 -367 0
-100 -367 0
101 -367 0
-103 -367 0
107 -367 0
-108 -367 0
-109 -367 0
122 -367 0
-123 -367 0
-124 -367 0
-130 -367 0
131 -367 0
-132 -367 0
-139 -367 0
-143 -367 0
145 -367 0
146 -367 0
-151 -367 0
-156 -367 0
157 -367 0
-167 -367 0
-170 -367 0
171 -367 0
-175 -367 0
177 -367 0
-194 -367 0
-195 -367 0
199 -367 0
201 -367 0
-206 -367 0
207 -367 0
-210 -367 0
-213 -367 0
214 -367 0
219 -367 0
-221 -367 0
-233 -367 0
234 -367 0
-239 -367 0
-247 -367 0
-248 -367 0
252 -367 0
-260 -367 0
263 -367 0
-266 -367 0
267 -367 0
278 -367 0
-280 -367 0
287 -367 0
-291 -367 0
302 -367 0
-303 -367 0
310 -367 0
334 -367 0
367 -368 0
326 -368 0
344 -369 0
368 369 -370 0
370 -371 0
366 371 -372 0
372 -373 0
365 373 -374 0
-87 -375 0
-89 -375 0
-173 -375 0
180 -375 0
-184 -375 0
-193 -375 0
-217 -375 0
-224 -375 0
-226 -375 0
-227 -375 0
231 -375 0
-258 -375 0
272 -375 0
-274 -375 0
-279 -375 0
-286 -375 0
-316 -375 0
-327 -375 0
-332 -375 0
374 -376 0
375 -376 0
376 -377 0
318 -377 0
344 -378 0
344 -379 0
344 -380 0
-32 -381 0
33 -381 0
-34 -381 0
-44 -381 0
-47 -381 0
48 -381 0
51 -381 0
-53 -381 0
-55 -381 0
-58 -381 0
60 -381 0
-74 -381 0
-75 -381 0
77 -381 0
-93 -381 0
95 -381 0
-100 -381 0
101 -381 0
107 -381 0
-108 -381 0
-109 -381 0
122 -381 0
-123 -381 0
-124 -381 0
-130 -381 0
-131 -381 0
132 -381 0
139 -381 0
-143 -381 0
-145 -381 0
-146 -381 0
151 -381 0
-156 -381 0
157 -381 0
170 -381 0
-173 -381 0
175 -381 0
-177 -381 0
193 -381 0
-195 -381 0
-199 -381 0
206 -381 0
-213 -381 0
214 -381 0
-217 -381 0
-221 -381 0
224 -381 0
-234 -381 0
239 -381 0
247 -381 0
-248 -381 0
-252 -381 0
258 -381 0
-263 -381 0
264 -381 0
-266 -381 0
-278 -381 0
-279 -381 0
280 -381 0
-286 -381 0
-287 -381 0
291 -381 0
-302 -381 0
-303 -381 0
306 -381 0
-310 -381 0
311 -381 0
323 -381 0
331 -381 0
-332 -381 0
-334 -381 0
381 -382 0
-327 -382 0
380 382 -383 0
383 -384 0
379 384 -385 0
-35 -386 0
42 -386 0
66 -386 0
-69 -386 0
-87 -386 0
89 -386 0
-90 -386 0
-96 -386 0
-103 -386 0
-167 -386 0
-180 -386 0
181 -386 0
-194 -386 0
-201 -386 0
-207 -386 0
210 -386 0
-219 -386 0
226 -386 0
-227 -386 0
-231 -386 0
-233 -386 0
-260 -386 0
-267 -386 0
274 -386 0
385 -387 0
386 -387 0
387 -388 0
378 388 -389 0
-40 -390 0
-88 -390 0
-184 -390 0
-272 -390 0
-316 -390 0
-326 -390 0
389 -391 0
390 -391 0
391 -392 0
319 -392 0
344 -393 0
392 393 -394 0
394 -395 0
-318 -395 0
377 395 -396 0
396 -397 0
-271 -397 0
-153 -399 0
-246 -399 0
-308 -399 0
-340 -399 0
398 -400 0
399 -400 0
336 -401 0
344 -402 0
344 -403 0
344 -404 0
32 -405 0
-33 -405 0
47 -405 0
51 -405 0
-53 -405 0
-96 -405 0
97 -405 0
103 -405 0
124 -405 0
130 -405 0
-131 -405 0
-132 -405 0
139 -405 0
-143 -405 0
-145 -405 0
-146 -405 0
-151 -405 0
152 -405 0
-175 -405 0
179 -405 0
195 -405 0
-199 -405 0
-221 -405 0
224 -405 0
235 -405 0
263 -405 0
266 -405 0
-278 -405 0
279 -405 0
-280 -405 0
285 -405 0
-286 -405 0
-287 -405 0
-291 -405 0
303 -405 0
308 -405 0
-310 -405 0
327 -405 0
332 -405 0
-334 -405 0
405 -406 0
-44 -406 0
404 406 -407 0
-34 -408 0
-35 -408 0
-40 -408 0
41 -408 0
-42 -408 0
-55 -408 0
-58 -408 0
-60 -408 0
63 -408 0
66 -408 0
-69 -408 0
74 -408 0
-75 -408 0
-77 -408 0
-87 -408 0
88 -408 0
-89 -408 0
-90 -408 0
-93 -408 0
-95 -408 0
-100 -408 0
-101 -408 0
107 -408 0
-108 -408 0
-109 -408 0
-122 -408 0
-123 -408 0
-153 -408 0
156 -408 0
-157 -408 0
-167 -408 0
170 -408 0
-173 -408 0
-177 -408 0
180 -408 0
-184 -408 0
-193 -408 0
-194 -408 0
-206 -408 0
-207 -408 0
210 -408 0
213 -408 0
-214 -408 0
-217 -408 0
-219 -408 0
-226 -408 0
-227 -408 0
-231 -408 0
232 -408 0
-233 -408 0
-234 -408 0
-239 -408 0
246 -408 0
-247 -408 0
-248 -408 0
-252 -408 0
-258 -408 0
-260 -408 0
-267 -408 0
-271 -408 0
-272 -408 0
274 -408 0
-302 -408 0
316 -408 0
-318 -408 0
-326 -408 0
340 -408 0
407 -409 0
408 -409 0
409 -410 0
201 -410 0
32 -411 0
-34 -411 0
-35 -411 0
42 -411 0
44 -411 0
-51 -411 0
-53 -411 0
55 -411 0
66 -411 0
-69 -411 0
-75 -411 0
77 -411 0
-89 -411 0
-90 -411 0
-93 -411 0
-95 -411 0
96 -411 0
100 -411 0
-103 -411 0
-122 -411 0
-123 -411 0
124 -411 0
-130 -411 0
-131 -411 0
132 -411 0
-139 -411 0
143 -411 0
-145 -411 0
-146 -411 0
149 -411 0
-151 -411 0
153 -411 0
-167 -411 0
168 -411 0
-170 -411 0
-173 -411 0
-175 -411 0
177 -411 0
180 -411 0
-184 -411 0
-193 -411 0
194 -411 0
-195 -411 0
-199 -411 0
206 -411 0
-207 -411 0
210 -411 0
213 -411 0
-214 -411 0
-217 -411 0
219 -411 0
-221 -411 0
-224 -411 0
-227 -411 0
231 -411 0
-233 -411 0
-234 -411 0
239 -411 0
-247 -411 0
248 -411 0
-252 -411 0
-258 -411 0
260 -411 0
-263 -411 0
266 -411 0
-267 -411 0
-271 -411 0
272 -411 0
-274 -411 0
278 -411 0
-279 -411 0
-280 -411 0
-286 -411 0
-287 -411 0
291 -411 0
-302 -411 0
-303 -411 0
305 -411 0
-308 -411 0
-310 -411 0
313 -411 0
-316 -411 0
318 -411 0
324 -411 0
-326 -411 0
-327 -411 0
329 -411 0
-332 -411 0
-334 -411 0
337 -411 0
411 -412 0
88 -412 0
344 -413 0
412 413 -414 0
-33 -415 0
-40 -415 0
-47 -415 0
-58 -415 0
-60 -415 0
-74 -415 0
-87 -415 0
-101 -415 0
-107 -415 0
108 -415 0
-109 -415 0
-156 -415 0
-157 -415 0
-226 -415 0
-246 -415 0
-340 -415 0
414 -416 0
415 -416 0
416 -417 0
61 -417 0
344 -418 0
-32 -419 0
33 -419 0
-34 -419 0
-35 -419 0
39 -419 0
-42 -419 0
-47 -419 0
49 -419 0
-53 -419 0
55 -419 0
-74 -419 0
75 -419 0
-77 -419 0
89 -419 0
-90 -419 0
93 -419 0
-95 -419 0
-96 -419 0
-100 -419 0
-101 -419 0
-103 -419 0
104 -419 0
-107 -419 0
108 -419 0
-109 -419 0
122 -419 0
-123 -419 0
-124 -419 0
-130 -419 0
131 -419 0
-132 -419 0
-139 -419 0
143 -419 0
-145 -419 0
146 -419 0
-151 -419 0
-153 -419 0
-157 -419 0
159 -419 0
-167 -419 0
172 -419 0
-173 -419 0
175 -419 0
-193 -419 0
194 -419 0
-195 -419 0
-199 -419 0
200 -419 0
-206 -419 0
-213 -419 0
-214 -419 0
217 -419 0
-221 -419 0
-224 -419 0
225 -419 0
234 -419 0
-239 -419 0
248 -419 0
-252 -419 0
258 -419 0
-260 -419 0
-263 -419 0
-266 -419 0
267 -419 0
-272 -419 0
-274 -419 0
277 -419 0
278 -419 0
-279 -419 0
-280 -419 0
-286 -419 0
287 -419 0
-291 -419 0
-302 -419 0
303 -419 0
308 -419 0
-310 -419 0
316 -419 0
-318 -419 0
-326 -419 0
327 -419 0
332 -419 0
-334 -419 0
419 -420 0
340 -420 0
344 -421 0
420 421 -422 0
-44 -423 0
-51 -423 0
-60 -423 0
66 -423 0
-69 -423 0
-207 -423 0
210 -423 0
-247 -423 0
422 -424 0
423 -424 0
424 -425 0
58 -425 0
344 -426 0
425 426 -427 0
-40 -428 0
-87 -428 0
-156 -428 0
-170 -428 0
-177 -428 0
-180 -428 0
184 -428 0
-219 -428 0
-227 -428 0
-231 -428 0
-233 -428 0
-246 -428 0
-271 -428 0
427 -429 0
428 -429 0
429 -430 0
226 -430 0
-32 -431 0
-33 -431 0
34 -431 0
-35 -431 0
-40 -431 0
42 -431 0
-44 -431 0
47 -431 0
-51 -431 0
53 -431 0
-55 -431 0
-60 -431 0
66 -431 0
-69 -431 0
-74 -431 0
-75 -431 0
77 -431 0
87 -431 0
-89 -431 0
-90 -431 0
93 -431 0
-95 -431 0
-96 -431 0
-100 -431 0
-101 -431 0
103 -431 0
-107 -431 0
-108 -431 0
109 -431 0
-122 -431 0
123 -431 0
-124 -431 0
-130 -431 0
-131 -431 0
132 -431 0
-139 -431 0
-143 -431 0
144 -431 0
-145 -431 0
146 -431 0
-151 -431 0
-153 -431 0
156 -431 0
-157 -431 0
167 -431 0
-170 -431 0
173 -431 0
-175 -431 0
-177 -431 0
-180 -431 0
184 -431 0
-193 -431 0
-194 -431 0
195 -431 0
-199 -431 0
206 -431 0
-207 -431 0
210 -431 0
-213 -431 0
-214 -431 0
217 -431 0
-219 -431 0
221 -431 0
-224 -431 0
227 -431 0
-231 -431 0
-233 -431 0
-234 -431 0
239 -431 0
246 -431 0
-247 -431 0
-248 -431 0
-252 -431 0
-258 -431 0
259 -431 0
-260 -431 0
-263 -431 0
-266 -431 0
267 -431 0
271 -431 0
-272 -431 0
-274 -431 0
-278 -431 0
279 -431 0
-280 -431 0
-286 -431 0
-287 -431 0
291 -431 0
-302 -431 0
-303 -431 0
304 -431 0
-308 -431 0
-310 -431 0
312 -431 0
-316 -431 0
-318 -431 0
320 -431 0
322 -431 0
-326 -431 0
-327 -431 0
330 -431 0
-332 -431 0
-334 -431 0
338 -431 0
-340 -431 0
431 -432 0
58 -432 0
344 -433 0
344 -434 0
34 -435 0
-35 -435 0
-55 -435 0
56 -435 0
-74 -435 0
76 -435 0
87 -435 0
-89 -435 0
100 -435 0
-101 -435 0
-103 -435 0
-122 -435 0
123 -435 0
-124 -435 0
129 -435 0
-130 -435 0
-131 -435 0
-132 -435 0
145 -435 0
151 -435 0
167 -435 0
-170 -435 0
-173 -435 0
177 -435 0
186 -435 0
193 -435 0
-194 -435 0
-199 -435 0
-214 -435 0
-217 -435 0
218 -435 0
221 -435 0
-224 -435 0
231 -435 0
-258 -435 0
260 -435 0
-263 -435 0
-266 -435 0
-267 -435 0
270 -435 0
-274 -435 0
280 -435 0
286 -435 0
-287 -435 0
-291 -435 0
-302 -435 0
303 -435 0
308 -435 0
-310 -435 0
316 -435 0
327 -435 0
332 -435 0
-334 -435 0
435 -436 0
271 -436 0
344 -437 0
436 437 -438 0
438 -439 0
-272 -439 0
439 -440 0
-318 -440 0
434 440 -441 0
-32 -442 0
44 -442 0
-51 -442 0
-53 -442 0
60 -442 0
66 -442 0
-69 -442 0
-75 -442 0
-77 -442 0
-90 -442 0
-93 -442 0
95 -442 0
-96 -442 0
-107 -442 0
-108 -442 0
-109 -442 0
111 -442 0
-139 -442 0
-143 -442 0
-146 -442 0
153 -442 0
-157 -442 0
-175 -442 0
-180 -442 0
-195 -442 0
202 -442 0
-206 -442 0
-207 -442 0
210 -442 0
-213 -442 0
-219 -442 0
-227 -442 0
233 -442 0
-234 -442 0
-239 -442 0
247 -442 0
-248 -442 0
-252 -442 0
-278 -442 0
-279 -442 0
-326 -442 0
340 -442 0
441 -443 0
442 -443 0
443 -444 0
433 444 -445 0
-33 -446 0
-42 -446 0
-47 -446 0
-184 -446 0
445 -447 0
446 -447 0
447 -448 0
40 -448 0
344 -449 0
448 449 -450 0
-156 -451 0
-246 -451 0
450 -452 0
451 -452 0
452 -453 0
-58 -453 0
432 453 -454 0
454 -455 0
-226 -455 0
430 455 -456 0
456 -457 0
-88 -457 0
418 457 -458 0
458 -459 0
417 459 -460 0
460 -461 0
-201 -461 0
462 -463 0
-336 -467 0
468 -470 0
1 0
2 0
3 0
4 0
5 0
6 0
7 0
-8 0
-9 0
-10 0
-11 0
-12 0
-13 0
-14 0
-15 0
-16 0
-17 0
-18 0
-19 0
-20 0
-21 0
-22 0
-23 0
-24 0
-25 0
-26 0
-27 0
-28 0
-29 0
-30 0
-31 0
-36 0
-38 0
-43 0
-46 0
-50 0
-52 0
-54 0
-57 0
-62 0
-64 0
-65 0
-67 0
-68 0
-70 0
-71 0
-72 0
-73 0
-78 0
-79 0
-80 0
-81 0
-82 0
-83 0
-84 0
-85 0
-86 0
-91 0
-92 0
-94 0
-98 0
-99 0
-102 0
-105 0
-106 0
-110 0
112 0
-113 0
-114 0
-115 0
-116 0
-117 0
-118 0
-119 0
-120 0
-121 0
-125 0
-126 0
-127 0
-128 0
-133 0
-134 0
-135 0
-136 0
-137 0
-138 0
-140 0
-141 0
-142 0
-147 0
-148 0
-150 0
-154 0
-155 0
-158 0
160 0
-161 0
-162 0
-163 0
-164 0
-165 0
-166 0
-169 0
-174 0
-176 0
-178 0
-182 0
-183 0
-187 0
-188 0
-189 0
-190 0
-191 0
-192 0
-196 0
-197 0
-198 0
-203 0
-204 0
-205 0
-208 0
-209 0
-211 0
-212 0
-215 0
-216 0
-220 0
-222 0
-223 0
-228 0
-229 0
-230 0
-236 0
-237 0
-238 0
-240 0
-241 0
-242 0
-243 0
-244 0
-245 0
-249 0
-250 0
-251 0
253 0
-254 0
-255 0
-256 0
-257 0
-261 0
-262 0
-265 0
-268 0
-269 0
-273 0
-275 0
-276 0
-281 0
-282 0
-283 0
-284 0
-288 0
-289 0
-290 0
-292 0
-293 0
-294 0
-295 0
-296 0
-297 0
298 0
-299 0
-300 0
-301 0
-307 0
-309 0
-314 0
-315 0
-317 0
-321 0
-325 0
-328 0
-333 0
-335 0
-339 0
-341 0
-342 0
-343 0
-469 470 0
-323 381 0
-185 347 0
173 375 381 408 411 419 435 0
-367 368 0
-193 381 435 0
-264 381 0
310 381 405 411 419 431 435 0
-416 417 0
252 381 408 411 419 431 442 0
-206 381 411 431 0
146 381 405 411 442 0
-139 381 405 0
-48 381 0
286 375 381 405 411 419 431 0
-231 375 411 435 0
280 367 405 411 419 431 0
224 375 411 419 431 435 0
-274 386 408 0
-93 419 431 0
-373 374 0
279 347 375 381 411 419 442 0
-272 375 411 0
233 367 386 408 411 428 431 0
-219 367 411 0
109 367 381 408 415 419 442 0
-202 442 0
-171 367 0
53 367 381 405 411 419 442 0
-51 367 381 405 0
-271 364 431 436 0
-363 364 0
-247 381 442 0
-459 460 0
278 362 381 405 431 442 0
-239 381 411 431 0
274 362 375 411 419 431 435 0
-225 419 0
-234 367 419 0
272 362 390 408 419 431 439 0
340 399 415 421 431 0
193 347 375 408 411 419 431 0
-101 367 381 0
-464 465 0
226 362 375 408 415 455 0
180 362 386 428 431 442 0
-88 408 412 418 0
90 358 386 408 411 419 431 442 0
-357 359 0
145 381 405 411 419 431 0
-425 427 0
-108 415 419 0
-457 458 0
-371 372 0
316 355 375 390 411 431 0
-199 347 367 0
101 347 408 415 419 431 435 0
-194 411 419 0
-258 381 419 0
-318 355 377 411 434 0
-375 376 0
-374 376 0
-360 361 0
88 355 367 390 413 457 0
-181 386 0
-429 430 0
87 355 375 386 408 415 428 0
-180 375 408 411 0
-462 463 0
-347 348 0
-170 347 381 408 0
-352 353 0
-144 431 0
-107 367 381 408 0
199 381 405 411 419 431 435 0
210 351 367 0
195 351 367 381 411 419 442 0
-103 405 431 0
143 347 367 381 405 431 442 0
-175 381 419 0
-356 357 0
167 347 367 386 408 411 419 0
-33 381 419 0
-75 367 419 0
32 347 367 381 419 431 442 0
74 367 381 415 419 431 435 0
-167 431 435 0
131 347 381 405 411 431 435 0
-130 347 405 0
-330 345 365 379 431 0
227 375 386 408 411 428 442 0
-277 419 0
-124 347 405 411 0
-334 347 367 0
-109 347 431 0
201 386 461 0
-319 392 402 0
-353 354 0
-173 347 431 0
-304 431 0
302 381 408 411 419 431 435 0
-60 367 381 442 0
-195 405 431 0
107 347 415 419 431 442 0
-408 409 0
-200 419 0
-436 438 0
-368 370 0
-100 347 411 435 0
93 347 367 381 408 411 442 0
-186 435 0
-320 431 0
-77 381 411 431 0
-35 347 367 0
139 347 367 411 419 431 442 0
-207 351 367 0
103 347 367 386 411 419 435 0
-452 453 0
-361 363 0
177 347 381 408 428 431 0
-74 347 408 0
-40 347 367 448 0
332 355 375 381 411 431 0
122 347 408 411 431 435 0
-354 356 0
-87 431 435 0
157 347 408 415 419 431 442 0
-327 346 380 405 419 435 0
287 347 381 405 411 431 435 0
108 347 367 381 408 431 442 0
-201 347 367 410 0
318 395 408 419 431 440 0
234 347 381 408 411 431 442 0
-324 366 411 0
206 347 367 408 419 442 0
-390 391 0
-442 443 0
-465 466 0
51 347 411 423 431 442 0
44 367 381 406 423 431 0
-432 454 0
-53 347 431 0
327 353 375 382 411 431 0
-210 386 408 411 423 431 442 0
-218 435 0
-376 377 0
40 390 408 415 428 431 449 0
-96 347 367 411 0
-291 381 411 431 0
-355 356 0
170 367 411 428 431 435 0
-59 347 0
-184 428 431 0
-348 350 0
-350 352 0
-420 422 0
263 381 411 419 431 435 0
-362 363 0
-287 367 419 0
248 347 367 381 408 431 442 0
-151 381 435 0
-326 348 368 0
-303 405 419 435 0
60 347 408 415 423 431 0
-424 425 0
-177 367 411 435 0
-263 347 367 405 0
-310 347 367 0
132 347 367 405 419 435 0
-168 411 0
-145 347 367 435 0
-213 408 411 0
-411 412 0
-44 347 404 411 442 0
217 347 375 381 408 411 435 0
-391 392 0
-129 435 0
-132 381 411 431 0
-377 396 0
-89 386 419 0
184 347 375 390 408 411 446 0
-302 347 367 0
194 347 367 386 408 431 435 0
-370 371 0
-95 381 442 0
-316 408 419 435 0
95 347 367 408 411 419 431 0
75 347 381 408 411 431 442 0
33 347 367 405 415 431 446 0
-419 420 0
-37 378 403 0
-322 431 0
213 347 367 381 419 431 442 0
-331 381 0
-214 347 367 381 0
-246 408 431 0
-359 360 0
-306 381 0
-224 347 381 405 0
-122 367 381 419 0
-332 405 419 435 0
214 408 411 419 431 435 0
123 347 367 381 408 411 419 0
-227 347 431 0
-445 447 0
231 347 386 408 428 431 0
-454 455 0
-233 347 442 0
-285 405 0
-278 367 411 419 0
-286 347 435 0
247 347 367 408 411 423 431 0
-252 347 367 0
258 347 375 408 411 431 435 0
-69 351 367 0
260 347 367 386 408 419 431 0
-267 347 367 419 431 0
-456 457 0
-351 352 0
-280 347 381 435 0
-235 405 0
96 386 405 419 431 442 0
55 351 367 381 408 431 435 0
156 367 381 415 428 451 0
-407 409 0
-45 367 0
47 347 367 381 415 419 446 0
124 367 381 419 431 435 0
-439 440 0
-383 384 0
58 347 367 381 408 415 426 453 0
66 351 367 0
-159 419 0
326 349 369 390 408 411 419 431 442 0
-364 398 0
219 347 386 408 428 431 442 0
-337 411 433 0
-157 367 381 0
-381 382 0
-440 441 0
-384 385 0
-382 383 0
-438 439 0
77 355 367 408 419 442 0
35 386 408 411 419 431 435 0
-42 386 411 431 0
-66 386 408 411 423 431 442 0
-414 416 0
207 386 408 411 423 431 442 0
-226 386 430 0
-397 398 0
-386 387 0
42 355 367 408 419 446 0
-387 388 0
-146 347 367 419 431 0
-388 389 0
-385 387 0
334 381 405 411 419 431 435 0
-441 443 0
-389 391 0
-217 419 431 0
-392 394 0
-394 395 0
-395 396 0
130 367 381 411 419 431 435 0
-308 405 419 435 0
-396 397 0
221 347 367 381 405 411 419 0
-398 400 0
-400 401 0
246 399 415 428 451 0
-131 367 419 0
308 399 411 431 0
-422 424 0
-221 431 435 0
34 351 367 381 408 411 419 0
-399 400 0
-32 405 411 0
-47 405 431 0
-97 405 0
-152 405 0
-179 405 0
-266 405 411 0
-279 405 431 0
-405 406 0
-406 407 0
-41 408 0
-63 408 0
-232 408 0
-428 429 0
-410 462 0
-55 411 419 0
-143 411 419 0
-149 411 0
-153 411 442 0
-248 411 419 0
-260 411 435 0
-329 411 0
-412 414 0
-415 416 0
303 347 367 381 411 431 0
-61 417 0
-417 460 0
-39 419 0
291 347 367 405 419 435 0
-49 419 0
-458 459 0
-104 419 0
37 347 375 388 463 0
-423 424 0
-58 425 432 0
-172 419 0
-427 429 0
-156 347 408 431 0
-430 456 0
-76 435 0
-34 431 435 0
-123 431 435 0
-259 431 0
-338 431 0
175 351 367 405 411 431 442 0
-431 432 0
-340 408 420 442 0
-56 435 0
-435 436 0
-270 435 0
-111 442 0
-443 444 0
-90 357 367 0
-444 445 0
-446 447 0
151 347 367 405 411 419 431 0
-447 448 0
-448 450 0
-450 452 0
-451 452 0
-453 454 0
-455 456 0
271 397 408 411 428 437 0
-460 461 0
-463 464 0
89 355 375 408 411 431 435 0
239 347 367 408 419 442 0
100 367 381 408 419 431 0
-461 462 0
-313 411 0
69 386 408 411 423 431 442 0
153 399 408 419 431 0
-305 411 0
-409 410 0
266 347 367 381 419 431 435 0
267 386 408 411 435 0
-311 381 0
-466 467 0
-372 373 0
-312 431 0
155 469 0
